networks/zoo_46_506/zoo_46_506.sol
<?xml version = "1.0" encoding="UTF-8" standalone="yes"?>
<CPLEXSolution version="1.2">
 <header
   problemName="networks/zoo_46_506/zoo_46_506.lp"
   solutionName="incumbent"
   solutionIndex="-1"
   objectiveValue="24"
   solutionTypeValue="3"
   solutionTypeString="primal"
   solutionStatusValue="101"
   solutionStatusString="integer optimal solution"
   solutionMethodString="mip"
   primalFeasible="1"
   dualFeasible="1"
   MIPNodes="0"
   MIPIterations="0"
   writeLevel="3"/>
 <quality
   epInt="1.0000000000000001e-05"
   epRHS="9.9999999999999995e-07"
   maxIntInfeas="0"
   maxPrimalInfeas="0"
   maxX="4"
   maxSlack="10"/>
 <variables>
  <variable name="Y(4,5)" index="142" value="1"/>
  <variable name="Y(11,12)" index="471" value="1"/>
  <variable name="Y(12,13)" index="518" value="1"/>
  <variable name="Y(13,14)" index="565" value="1"/>
  <variable name="Y(15,16)" index="659" value="1"/>
  <variable name="Y(20,21)" index="894" value="1"/>
  <variable name="Y(58,15)" index="2636" value="1"/>
  <variable name="Y(63,22)" index="2873" value="1"/>
  <variable name="Y(93,6)" index="4237" value="1"/>
  <variable name="Y(127,18)" index="5813" value="1"/>
  <variable name="Y(158,4)" index="7225" value="1"/>
  <variable name="Y(230,10)" index="10543" value="1"/>
  <variable name="Y(244,2)" index="11179" value="1"/>
  <variable name="Y(253,11)" index="11602" value="1"/>
  <variable name="Y(317,9)" index="14544" value="1"/>
  <variable name="Y(333,3)" index="15274" value="1"/>
  <variable name="Y(392,19)" index="18004" value="1"/>
  <variable name="Y(415,20)" index="19063" value="1"/>
  <variable name="Y(426,8)" index="19557" value="1"/>
  <variable name="Y(435,17)" index="19980" value="1"/>
  <variable name="Y(439,22)" index="20169" value="1"/>
  <variable name="Y(440,23)" index="20216" value="1"/>
  <variable name="Y(485,1)" index="22264" value="1"/>
  <variable name="Y(491,7)" index="22546" value="1"/>
  <variable name="X(1,2,426)" index="23701" value="1"/>
  <variable name="X(1,4,158)" index="23939" value="1"/>
  <variable name="X(1,24,485)" index="24772" value="1"/>
  <variable name="X(2,1,158)" index="24951" value="1"/>
  <variable name="X(2,7,426)" index="25725" value="1"/>
  <variable name="X(2,25,244)" index="26049" value="1"/>
  <variable name="X(3,4,485)" index="26796" value="1"/>
  <variable name="X(3,22,20)" index="26837" value="1"/>
  <variable name="X(3,26,333)" index="27656" value="1"/>
  <variable name="X(4,1,485)" index="28314" value="1"/>
  <variable name="X(4,3,20)" index="28355" value="1"/>
  <variable name="X(4,27,158)" index="28999" value="1"/>
  <variable name="X(5,8,93)" index="29440" value="1"/>
  <variable name="X(5,28,4)" index="29857" value="1"/>
  <variable name="X(6,8,491)" index="30850" value="1"/>
  <variable name="X(6,9,11)" index="30876" value="1"/>
  <variable name="X(6,29,93)" index="31464" value="1"/>
  <variable name="X(7,2,244)" index="32121" value="1"/>
  <variable name="X(7,8,426)" index="32809" value="1"/>
  <variable name="X(7,30,491)" index="33380" value="1"/>
  <variable name="X(8,5,4)" index="33399" value="1"/>
  <variable name="X(8,6,93)" index="33994" value="1"/>
  <variable name="X(8,7,491)" index="34898" value="1"/>
  <variable name="X(8,31,426)" index="35339" value="1"/>
  <variable name="X(9,6,491)" index="35910" value="1"/>
  <variable name="X(9,10,230)" index="36155" value="1"/>
  <variable name="X(9,11,253)" index="36684" value="1"/>
  <variable name="X(9,12,11)" index="36948" value="1"/>
  <variable name="X(9,32,317)" index="37760" value="1"/>
  <variable name="X(10,9,317)" index="38266" value="1"/>
  <variable name="X(10,13,12)" index="38467" value="1"/>
  <variable name="X(10,33,230)" index="39191" value="1"/>
  <variable name="X(11,9,230)" index="39697" value="1"/>
  <variable name="X(11,34,253)" index="40226" value="1"/>
  <variable name="X(12,9,253)" index="40732" value="1"/>
  <variable name="X(12,35,11)" index="40996" value="1"/>
  <variable name="X(13,10,317)" index="41808" value="1"/>
  <variable name="X(13,15,13)" index="42010" value="1"/>
  <variable name="X(13,36,12)" index="42515" value="1"/>
  <variable name="X(14,15,58)" index="43067" value="1"/>
  <variable name="X(14,23,127)" index="43642" value="1"/>
  <variable name="X(14,37,13)" index="44034" value="1"/>
  <variable name="X(15,13,317)" index="44844" value="1"/>
  <variable name="X(15,14,13)" index="45046" value="1"/>
  <variable name="X(15,38,58)" index="45597" value="1"/>
  <variable name="X(16,17,127)" index="46172" value="1"/>
  <variable name="X(16,23,440)" index="46991" value="1"/>
  <variable name="X(16,39,15)" index="47072" value="1"/>
  <variable name="X(17,16,440)" index="48003" value="1"/>
  <variable name="X(17,18,127)" index="48196" value="1"/>
  <variable name="X(17,40,435)" index="49010" value="1"/>
  <variable name="X(18,17,435)" index="49516" value="1"/>
  <variable name="X(18,19,392)" index="49979" value="1"/>
  <variable name="X(18,41,127)" index="50220" value="1"/>
  <variable name="X(19,18,435)" index="51034" value="1"/>
  <variable name="X(19,21,333)" index="51438" value="1"/>
  <variable name="X(19,42,392)" index="52003" value="1"/>
  <variable name="X(20,21,435)" index="52552" value="1"/>
  <variable name="X(20,22,439)" index="53062" value="1"/>
  <variable name="X(20,43,415)" index="53544" value="1"/>
  <variable name="X(21,19,435)" index="54070" value="1"/>
  <variable name="X(21,20,415)" index="54556" value="1"/>
  <variable name="X(21,22,333)" index="54980" value="1"/>
  <variable name="X(21,44,20)" index="55173" value="1"/>
  <variable name="X(22,3,333)" index="55992" value="1"/>
  <variable name="X(22,20,63)" index="56228" value="1"/>
  <variable name="X(22,21,20)" index="56691" value="1"/>
  <variable name="X(22,45,439)" index="57616" value="1"/>
  <variable name="X(23,14,58)" index="57741" value="1"/>
  <variable name="X(23,16,127)" index="58316" value="1"/>
  <variable name="X(23,46,440)" index="59135" value="1"/>
  <variable name="C(4,5)" index="59213" value="1"/>
  <variable name="C(11,9)" index="59251" value="1"/>
  <variable name="C(11,12)" index="59252" value="2"/>
  <variable name="C(12,13)" index="59260" value="1"/>
  <variable name="C(13,15)" index="59269" value="1"/>
  <variable name="C(13,14)" index="59270" value="2"/>
  <variable name="C(20,3)" index="59317" value="1"/>
  <variable name="C(20,22)" index="59318" value="2"/>
  <variable name="C(20,21)" index="59319" value="3"/>
  <variable name="C(58,14)" index="59560" value="1"/>
  <variable name="C(58,15)" index="59561" value="2"/>
  <variable name="C(93,8)" index="59757" value="1"/>
  <variable name="C(93,6)" index="59758" value="2"/>
  <variable name="C(127,23)" index="59960" value="1"/>
  <variable name="C(127,16)" index="59961" value="2"/>
  <variable name="C(127,17)" index="59962" value="3"/>
  <variable name="C(127,18)" index="59963" value="4"/>
  <variable name="C(158,1)" index="60151" value="1"/>
  <variable name="C(158,4)" index="60152" value="2"/>
  <variable name="C(230,9)" index="60567" value="1"/>
  <variable name="C(230,10)" index="60568" value="2"/>
  <variable name="C(244,2)" index="60676" value="1"/>
  <variable name="C(253,9)" index="60717" value="1"/>
  <variable name="C(253,11)" index="60718" value="2"/>
  <variable name="C(317,13)" index="61142" value="1"/>
  <variable name="C(317,10)" index="61143" value="2"/>
  <variable name="C(317,9)" index="61144" value="3"/>
  <variable name="C(333,21)" index="61236" value="1"/>
  <variable name="C(333,22)" index="61237" value="2"/>
  <variable name="C(333,3)" index="61238" value="3"/>
  <variable name="C(392,19)" index="61622" value="1"/>
  <variable name="C(415,20)" index="61770" value="1"/>
  <variable name="C(426,2)" index="61829" value="1"/>
  <variable name="C(426,7)" index="61830" value="2"/>
  <variable name="C(426,8)" index="61831" value="3"/>
  <variable name="C(435,21)" index="61909" value="1"/>
  <variable name="C(435,19)" index="61910" value="2"/>
  <variable name="C(435,18)" index="61911" value="3"/>
  <variable name="C(435,17)" index="61912" value="4"/>
  <variable name="C(439,22)" index="61923" value="1"/>
  <variable name="C(440,16)" index="61929" value="1"/>
  <variable name="C(440,23)" index="61930" value="2"/>
  <variable name="C(485,4)" index="62218" value="1"/>
  <variable name="C(485,1)" index="62219" value="2"/>
  <variable name="C(491,6)" index="62269" value="1"/>
  <variable name="C(491,8)" index="62270" value="2"/>
  <variable name="C(491,7)" index="62271" value="3"/>
 </variables>
</CPLEXSolution>
